c Generated after 1 tries
c Graph with 200 nodes and 1300 edges, Max edges:19900
c generated from an undirected graph
c to solve unweighted MaxCut
p cnf 200 2600
1 4 0
-1 -4 0
1 6 0
-1 -6 0
1 32 0
-1 -32 0
1 35 0
-1 -35 0
1 54 0
-1 -54 0
1 75 0
-1 -75 0
1 116 0
-1 -116 0
1 143 0
-1 -143 0
1 155 0
-1 -155 0
1 185 0
-1 -185 0
1 193 0
-1 -193 0
2 14 0
-2 -14 0
2 46 0
-2 -46 0
2 50 0
-2 -50 0
2 79 0
-2 -79 0
2 110 0
-2 -110 0
2 118 0
-2 -118 0
2 121 0
-2 -121 0
2 129 0
-2 -129 0
2 157 0
-2 -157 0
2 175 0
-2 -175 0
2 188 0
-2 -188 0
2 190 0
-2 -190 0
3 5 0
-3 -5 0
3 8 0
-3 -8 0
3 32 0
-3 -32 0
3 38 0
-3 -38 0
3 55 0
-3 -55 0
3 69 0
-3 -69 0
3 89 0
-3 -89 0
3 95 0
-3 -95 0
3 97 0
-3 -97 0
3 119 0
-3 -119 0
3 124 0
-3 -124 0
3 131 0
-3 -131 0
3 132 0
-3 -132 0
3 137 0
-3 -137 0
3 142 0
-3 -142 0
3 143 0
-3 -143 0
3 185 0
-3 -185 0
3 192 0
-3 -192 0
3 194 0
-3 -194 0
4 45 0
-4 -45 0
4 72 0
-4 -72 0
4 84 0
-4 -84 0
4 87 0
-4 -87 0
4 113 0
-4 -113 0
4 122 0
-4 -122 0
4 139 0
-4 -139 0
4 142 0
-4 -142 0
4 150 0
-4 -150 0
4 163 0
-4 -163 0
4 190 0
-4 -190 0
4 195 0
-4 -195 0
4 196 0
-4 -196 0
5 8 0
-5 -8 0
5 16 0
-5 -16 0
5 20 0
-5 -20 0
5 54 0
-5 -54 0
5 60 0
-5 -60 0
5 61 0
-5 -61 0
5 116 0
-5 -116 0
5 120 0
-5 -120 0
5 123 0
-5 -123 0
5 141 0
-5 -141 0
5 146 0
-5 -146 0
5 154 0
-5 -154 0
5 158 0
-5 -158 0
5 161 0
-5 -161 0
5 175 0
-5 -175 0
5 177 0
-5 -177 0
6 9 0
-6 -9 0
6 27 0
-6 -27 0
6 34 0
-6 -34 0
6 40 0
-6 -40 0
6 42 0
-6 -42 0
6 61 0
-6 -61 0
6 74 0
-6 -74 0
6 124 0
-6 -124 0
6 136 0
-6 -136 0
6 141 0
-6 -141 0
6 162 0
-6 -162 0
6 170 0
-6 -170 0
6 193 0
-6 -193 0
7 57 0
-7 -57 0
7 63 0
-7 -63 0
7 85 0
-7 -85 0
7 100 0
-7 -100 0
7 105 0
-7 -105 0
7 110 0
-7 -110 0
7 111 0
-7 -111 0
7 112 0
-7 -112 0
7 136 0
-7 -136 0
7 153 0
-7 -153 0
7 190 0
-7 -190 0
7 192 0
-7 -192 0
8 28 0
-8 -28 0
8 34 0
-8 -34 0
8 45 0
-8 -45 0
8 62 0
-8 -62 0
8 71 0
-8 -71 0
8 74 0
-8 -74 0
8 96 0
-8 -96 0
8 108 0
-8 -108 0
8 109 0
-8 -109 0
8 110 0
-8 -110 0
8 118 0
-8 -118 0
8 120 0
-8 -120 0
8 134 0
-8 -134 0
8 138 0
-8 -138 0
8 148 0
-8 -148 0
9 12 0
-9 -12 0
9 16 0
-9 -16 0
9 20 0
-9 -20 0
9 24 0
-9 -24 0
9 36 0
-9 -36 0
9 41 0
-9 -41 0
9 50 0
-9 -50 0
9 51 0
-9 -51 0
9 87 0
-9 -87 0
9 118 0
-9 -118 0
9 152 0
-9 -152 0
9 154 0
-9 -154 0
9 158 0
-9 -158 0
9 177 0
-9 -177 0
9 183 0
-9 -183 0
9 192 0
-9 -192 0
10 36 0
-10 -36 0
10 53 0
-10 -53 0
10 59 0
-10 -59 0
10 65 0
-10 -65 0
10 74 0
-10 -74 0
10 81 0
-10 -81 0
10 110 0
-10 -110 0
10 193 0
-10 -193 0
10 196 0
-10 -196 0
11 12 0
-11 -12 0
11 40 0
-11 -40 0
11 51 0
-11 -51 0
11 93 0
-11 -93 0
11 113 0
-11 -113 0
11 121 0
-11 -121 0
11 130 0
-11 -130 0
11 151 0
-11 -151 0
11 154 0
-11 -154 0
11 168 0
-11 -168 0
12 54 0
-12 -54 0
12 61 0
-12 -61 0
12 64 0
-12 -64 0
12 65 0
-12 -65 0
12 80 0
-12 -80 0
12 107 0
-12 -107 0
12 108 0
-12 -108 0
12 109 0
-12 -109 0
12 114 0
-12 -114 0
12 125 0
-12 -125 0
12 126 0
-12 -126 0
12 190 0
-12 -190 0
12 198 0
-12 -198 0
12 200 0
-12 -200 0
13 45 0
-13 -45 0
13 61 0
-13 -61 0
13 86 0
-13 -86 0
13 91 0
-13 -91 0
13 98 0
-13 -98 0
13 104 0
-13 -104 0
13 106 0
-13 -106 0
13 142 0
-13 -142 0
13 146 0
-13 -146 0
13 147 0
-13 -147 0
13 148 0
-13 -148 0
13 155 0
-13 -155 0
13 164 0
-13 -164 0
13 171 0
-13 -171 0
13 194 0
-13 -194 0
14 26 0
-14 -26 0
14 36 0
-14 -36 0
14 77 0
-14 -77 0
14 107 0
-14 -107 0
14 113 0
-14 -113 0
14 114 0
-14 -114 0
14 126 0
-14 -126 0
14 136 0
-14 -136 0
14 149 0
-14 -149 0
14 151 0
-14 -151 0
14 154 0
-14 -154 0
14 166 0
-14 -166 0
14 196 0
-14 -196 0
14 198 0
-14 -198 0
14 200 0
-14 -200 0
15 18 0
-15 -18 0
15 33 0
-15 -33 0
15 37 0
-15 -37 0
15 43 0
-15 -43 0
15 45 0
-15 -45 0
15 74 0
-15 -74 0
15 87 0
-15 -87 0
15 89 0
-15 -89 0
15 106 0
-15 -106 0
15 142 0
-15 -142 0
15 152 0
-15 -152 0
15 186 0
-15 -186 0
16 44 0
-16 -44 0
16 47 0
-16 -47 0
16 55 0
-16 -55 0
16 58 0
-16 -58 0
16 68 0
-16 -68 0
16 100 0
-16 -100 0
16 118 0
-16 -118 0
16 129 0
-16 -129 0
16 139 0
-16 -139 0
16 148 0
-16 -148 0
16 167 0
-16 -167 0
17 36 0
-17 -36 0
17 56 0
-17 -56 0
17 72 0
-17 -72 0
17 93 0
-17 -93 0
17 118 0
-17 -118 0
17 160 0
-17 -160 0
17 171 0
-17 -171 0
17 177 0
-17 -177 0
17 186 0
-17 -186 0
18 57 0
-18 -57 0
18 97 0
-18 -97 0
18 103 0
-18 -103 0
18 109 0
-18 -109 0
18 124 0
-18 -124 0
18 153 0
-18 -153 0
18 172 0
-18 -172 0
18 175 0
-18 -175 0
18 181 0
-18 -181 0
18 193 0
-18 -193 0
19 53 0
-19 -53 0
19 65 0
-19 -65 0
19 109 0
-19 -109 0
19 114 0
-19 -114 0
19 126 0
-19 -126 0
19 145 0
-19 -145 0
19 159 0
-19 -159 0
19 162 0
-19 -162 0
19 168 0
-19 -168 0
19 170 0
-19 -170 0
19 193 0
-19 -193 0
19 197 0
-19 -197 0
20 52 0
-20 -52 0
20 60 0
-20 -60 0
20 61 0
-20 -61 0
20 126 0
-20 -126 0
20 140 0
-20 -140 0
20 144 0
-20 -144 0
20 177 0
-20 -177 0
20 188 0
-20 -188 0
20 195 0
-20 -195 0
21 25 0
-21 -25 0
21 27 0
-21 -27 0
21 38 0
-21 -38 0
21 51 0
-21 -51 0
21 63 0
-21 -63 0
21 75 0
-21 -75 0
21 82 0
-21 -82 0
21 83 0
-21 -83 0
21 103 0
-21 -103 0
21 106 0
-21 -106 0
21 114 0
-21 -114 0
21 126 0
-21 -126 0
21 138 0
-21 -138 0
22 54 0
-22 -54 0
22 59 0
-22 -59 0
22 108 0
-22 -108 0
22 123 0
-22 -123 0
22 192 0
-22 -192 0
23 41 0
-23 -41 0
23 47 0
-23 -47 0
23 56 0
-23 -56 0
23 72 0
-23 -72 0
23 98 0
-23 -98 0
23 111 0
-23 -111 0
23 127 0
-23 -127 0
23 148 0
-23 -148 0
23 159 0
-23 -159 0
24 44 0
-24 -44 0
24 47 0
-24 -47 0
24 63 0
-24 -63 0
24 76 0
-24 -76 0
24 120 0
-24 -120 0
24 132 0
-24 -132 0
24 138 0
-24 -138 0
24 160 0
-24 -160 0
24 166 0
-24 -166 0
24 169 0
-24 -169 0
25 30 0
-25 -30 0
25 33 0
-25 -33 0
25 86 0
-25 -86 0
25 110 0
-25 -110 0
25 129 0
-25 -129 0
25 139 0
-25 -139 0
25 151 0
-25 -151 0
25 153 0
-25 -153 0
25 154 0
-25 -154 0
25 163 0
-25 -163 0
25 174 0
-25 -174 0
25 180 0
-25 -180 0
25 182 0
-25 -182 0
25 197 0
-25 -197 0
26 30 0
-26 -30 0
26 52 0
-26 -52 0
26 57 0
-26 -57 0
26 58 0
-26 -58 0
26 94 0
-26 -94 0
26 101 0
-26 -101 0
26 102 0
-26 -102 0
26 103 0
-26 -103 0
26 125 0
-26 -125 0
26 171 0
-26 -171 0
26 173 0
-26 -173 0
26 192 0
-26 -192 0
26 194 0
-26 -194 0
26 196 0
-26 -196 0
27 31 0
-27 -31 0
27 43 0
-27 -43 0
27 46 0
-27 -46 0
27 53 0
-27 -53 0
27 58 0
-27 -58 0
27 73 0
-27 -73 0
27 80 0
-27 -80 0
27 102 0
-27 -102 0
27 110 0
-27 -110 0
27 127 0
-27 -127 0
27 146 0
-27 -146 0
27 182 0
-27 -182 0
27 185 0
-27 -185 0
27 190 0
-27 -190 0
28 46 0
-28 -46 0
28 64 0
-28 -64 0
28 75 0
-28 -75 0
28 79 0
-28 -79 0
28 80 0
-28 -80 0
28 86 0
-28 -86 0
28 118 0
-28 -118 0
28 136 0
-28 -136 0
28 157 0
-28 -157 0
28 160 0
-28 -160 0
28 161 0
-28 -161 0
28 187 0
-28 -187 0
28 194 0
-28 -194 0
29 41 0
-29 -41 0
29 42 0
-29 -42 0
29 57 0
-29 -57 0
29 77 0
-29 -77 0
29 99 0
-29 -99 0
29 102 0
-29 -102 0
29 132 0
-29 -132 0
29 160 0
-29 -160 0
29 175 0
-29 -175 0
30 34 0
-30 -34 0
30 67 0
-30 -67 0
30 70 0
-30 -70 0
30 117 0
-30 -117 0
30 119 0
-30 -119 0
30 130 0
-30 -130 0
30 156 0
-30 -156 0
30 187 0
-30 -187 0
31 93 0
-31 -93 0
31 110 0
-31 -110 0
31 141 0
-31 -141 0
31 145 0
-31 -145 0
31 167 0
-31 -167 0
31 169 0
-31 -169 0
31 189 0
-31 -189 0
32 33 0
-32 -33 0
32 37 0
-32 -37 0
32 41 0
-32 -41 0
32 63 0
-32 -63 0
32 82 0
-32 -82 0
32 92 0
-32 -92 0
32 100 0
-32 -100 0
32 108 0
-32 -108 0
32 117 0
-32 -117 0
32 123 0
-32 -123 0
32 125 0
-32 -125 0
32 148 0
-32 -148 0
32 163 0
-32 -163 0
32 177 0
-32 -177 0
32 187 0
-32 -187 0
32 192 0
-32 -192 0
32 194 0
-32 -194 0
33 78 0
-33 -78 0
33 84 0
-33 -84 0
33 89 0
-33 -89 0
33 100 0
-33 -100 0
33 108 0
-33 -108 0
33 111 0
-33 -111 0
33 118 0
-33 -118 0
33 138 0
-33 -138 0
33 144 0
-33 -144 0
33 152 0
-33 -152 0
33 158 0
-33 -158 0
34 51 0
-34 -51 0
34 77 0
-34 -77 0
34 84 0
-34 -84 0
34 90 0
-34 -90 0
34 92 0
-34 -92 0
34 96 0
-34 -96 0
34 99 0
-34 -99 0
34 102 0
-34 -102 0
34 104 0
-34 -104 0
34 107 0
-34 -107 0
34 128 0
-34 -128 0
34 135 0
-34 -135 0
34 166 0
-34 -166 0
35 58 0
-35 -58 0
35 60 0
-35 -60 0
35 68 0
-35 -68 0
35 69 0
-35 -69 0
35 84 0
-35 -84 0
35 115 0
-35 -115 0
35 131 0
-35 -131 0
35 154 0
-35 -154 0
35 183 0
-35 -183 0
35 187 0
-35 -187 0
36 38 0
-36 -38 0
36 41 0
-36 -41 0
36 73 0
-36 -73 0
36 106 0
-36 -106 0
36 107 0
-36 -107 0
36 161 0
-36 -161 0
36 174 0
-36 -174 0
37 64 0
-37 -64 0
37 71 0
-37 -71 0
37 114 0
-37 -114 0
37 129 0
-37 -129 0
37 146 0
-37 -146 0
37 148 0
-37 -148 0
37 150 0
-37 -150 0
37 157 0
-37 -157 0
37 172 0
-37 -172 0
37 177 0
-37 -177 0
37 195 0
-37 -195 0
38 40 0
-38 -40 0
38 52 0
-38 -52 0
38 61 0
-38 -61 0
38 64 0
-38 -64 0
38 70 0
-38 -70 0
38 88 0
-38 -88 0
38 96 0
-38 -96 0
38 158 0
-38 -158 0
38 168 0
-38 -168 0
38 175 0
-38 -175 0
38 178 0
-38 -178 0
39 82 0
-39 -82 0
39 93 0
-39 -93 0
39 100 0
-39 -100 0
39 109 0
-39 -109 0
39 118 0
-39 -118 0
39 171 0
-39 -171 0
40 48 0
-40 -48 0
40 62 0
-40 -62 0
40 88 0
-40 -88 0
40 104 0
-40 -104 0
40 105 0
-40 -105 0
40 145 0
-40 -145 0
40 147 0
-40 -147 0
40 150 0
-40 -150 0
40 171 0
-40 -171 0
40 186 0
-40 -186 0
40 188 0
-40 -188 0
40 189 0
-40 -189 0
41 55 0
-41 -55 0
41 56 0
-41 -56 0
41 76 0
-41 -76 0
41 79 0
-41 -79 0
41 94 0
-41 -94 0
41 109 0
-41 -109 0
41 113 0
-41 -113 0
41 170 0
-41 -170 0
41 196 0
-41 -196 0
42 45 0
-42 -45 0
42 55 0
-42 -55 0
42 73 0
-42 -73 0
42 74 0
-42 -74 0
42 90 0
-42 -90 0
42 91 0
-42 -91 0
42 129 0
-42 -129 0
42 140 0
-42 -140 0
42 145 0
-42 -145 0
42 169 0
-42 -169 0
42 175 0
-42 -175 0
42 180 0
-42 -180 0
42 190 0
-42 -190 0
42 195 0
-42 -195 0
43 79 0
-43 -79 0
43 121 0
-43 -121 0
43 125 0
-43 -125 0
43 126 0
-43 -126 0
43 140 0
-43 -140 0
43 175 0
-43 -175 0
43 194 0
-43 -194 0
43 199 0
-43 -199 0
44 64 0
-44 -64 0
44 87 0
-44 -87 0
44 96 0
-44 -96 0
44 111 0
-44 -111 0
44 126 0
-44 -126 0
44 134 0
-44 -134 0
44 149 0
-44 -149 0
45 46 0
-45 -46 0
45 49 0
-45 -49 0
45 98 0
-45 -98 0
45 108 0
-45 -108 0
45 109 0
-45 -109 0
45 120 0
-45 -120 0
45 136 0
-45 -136 0
45 139 0
-45 -139 0
45 187 0
-45 -187 0
45 190 0
-45 -190 0
45 199 0
-45 -199 0
46 103 0
-46 -103 0
46 123 0
-46 -123 0
46 129 0
-46 -129 0
46 146 0
-46 -146 0
46 149 0
-46 -149 0
46 152 0
-46 -152 0
46 169 0
-46 -169 0
47 57 0
-47 -57 0
47 60 0
-47 -60 0
47 70 0
-47 -70 0
47 94 0
-47 -94 0
47 101 0
-47 -101 0
47 113 0
-47 -113 0
47 126 0
-47 -126 0
47 129 0
-47 -129 0
47 131 0
-47 -131 0
47 143 0
-47 -143 0
47 156 0
-47 -156 0
47 189 0
-47 -189 0
48 87 0
-48 -87 0
48 90 0
-48 -90 0
48 102 0
-48 -102 0
48 108 0
-48 -108 0
48 117 0
-48 -117 0
48 128 0
-48 -128 0
48 133 0
-48 -133 0
48 135 0
-48 -135 0
48 159 0
-48 -159 0
48 180 0
-48 -180 0
48 189 0
-48 -189 0
48 198 0
-48 -198 0
49 53 0
-49 -53 0
49 125 0
-49 -125 0
49 143 0
-49 -143 0
49 156 0
-49 -156 0
49 159 0
-49 -159 0
49 178 0
-49 -178 0
49 187 0
-49 -187 0
50 55 0
-50 -55 0
50 78 0
-50 -78 0
50 80 0
-50 -80 0
50 182 0
-50 -182 0
50 184 0
-50 -184 0
50 192 0
-50 -192 0
51 56 0
-51 -56 0
51 79 0
-51 -79 0
51 84 0
-51 -84 0
51 108 0
-51 -108 0
51 129 0
-51 -129 0
51 150 0
-51 -150 0
51 153 0
-51 -153 0
51 158 0
-51 -158 0
51 183 0
-51 -183 0
51 185 0
-51 -185 0
51 191 0
-51 -191 0
52 67 0
-52 -67 0
52 106 0
-52 -106 0
52 117 0
-52 -117 0
52 119 0
-52 -119 0
52 142 0
-52 -142 0
52 146 0
-52 -146 0
52 148 0
-52 -148 0
52 162 0
-52 -162 0
52 163 0
-52 -163 0
52 177 0
-52 -177 0
52 189 0
-52 -189 0
53 59 0
-53 -59 0
53 80 0
-53 -80 0
53 97 0
-53 -97 0
53 153 0
-53 -153 0
53 166 0
-53 -166 0
53 189 0
-53 -189 0
53 197 0
-53 -197 0
54 76 0
-54 -76 0
54 77 0
-54 -77 0
54 84 0
-54 -84 0
54 114 0
-54 -114 0
54 120 0
-54 -120 0
54 122 0
-54 -122 0
54 148 0
-54 -148 0
54 156 0
-54 -156 0
54 166 0
-54 -166 0
54 193 0
-54 -193 0
55 61 0
-55 -61 0
55 65 0
-55 -65 0
55 94 0
-55 -94 0
55 96 0
-55 -96 0
55 112 0
-55 -112 0
55 116 0
-55 -116 0
55 152 0
-55 -152 0
55 162 0
-55 -162 0
55 171 0
-55 -171 0
55 173 0
-55 -173 0
55 195 0
-55 -195 0
56 58 0
-56 -58 0
56 80 0
-56 -80 0
56 103 0
-56 -103 0
56 114 0
-56 -114 0
56 135 0
-56 -135 0
56 174 0
-56 -174 0
56 180 0
-56 -180 0
57 68 0
-57 -68 0
57 72 0
-57 -72 0
57 76 0
-57 -76 0
57 90 0
-57 -90 0
57 95 0
-57 -95 0
57 99 0
-57 -99 0
57 104 0
-57 -104 0
57 123 0
-57 -123 0
57 128 0
-57 -128 0
57 133 0
-57 -133 0
57 136 0
-57 -136 0
57 161 0
-57 -161 0
57 165 0
-57 -165 0
58 62 0
-58 -62 0
58 66 0
-58 -66 0
58 74 0
-58 -74 0
58 85 0
-58 -85 0
58 94 0
-58 -94 0
58 106 0
-58 -106 0
58 114 0
-58 -114 0
58 156 0
-58 -156 0
58 157 0
-58 -157 0
58 163 0
-58 -163 0
58 184 0
-58 -184 0
58 188 0
-58 -188 0
59 62 0
-59 -62 0
59 71 0
-59 -71 0
59 94 0
-59 -94 0
59 98 0
-59 -98 0
59 123 0
-59 -123 0
59 127 0
-59 -127 0
59 151 0
-59 -151 0
59 166 0
-59 -166 0
60 68 0
-60 -68 0
60 87 0
-60 -87 0
60 91 0
-60 -91 0
60 99 0
-60 -99 0
60 118 0
-60 -118 0
60 119 0
-60 -119 0
60 144 0
-60 -144 0
60 166 0
-60 -166 0
61 92 0
-61 -92 0
61 103 0
-61 -103 0
61 107 0
-61 -107 0
61 111 0
-61 -111 0
61 146 0
-61 -146 0
61 162 0
-61 -162 0
61 164 0
-61 -164 0
61 171 0
-61 -171 0
61 181 0
-61 -181 0
61 190 0
-61 -190 0
61 193 0
-61 -193 0
62 83 0
-62 -83 0
62 107 0
-62 -107 0
62 131 0
-62 -131 0
62 158 0
-62 -158 0
62 159 0
-62 -159 0
62 169 0
-62 -169 0
63 75 0
-63 -75 0
63 82 0
-63 -82 0
63 83 0
-63 -83 0
63 87 0
-63 -87 0
63 93 0
-63 -93 0
63 96 0
-63 -96 0
63 99 0
-63 -99 0
63 115 0
-63 -115 0
63 152 0
-63 -152 0
64 71 0
-64 -71 0
64 81 0
-64 -81 0
64 86 0
-64 -86 0
64 91 0
-64 -91 0
64 99 0
-64 -99 0
64 107 0
-64 -107 0
64 114 0
-64 -114 0
64 117 0
-64 -117 0
64 138 0
-64 -138 0
64 143 0
-64 -143 0
64 147 0
-64 -147 0
64 155 0
-64 -155 0
64 177 0
-64 -177 0
64 200 0
-64 -200 0
65 87 0
-65 -87 0
65 88 0
-65 -88 0
65 91 0
-65 -91 0
65 95 0
-65 -95 0
65 135 0
-65 -135 0
65 139 0
-65 -139 0
65 142 0
-65 -142 0
65 145 0
-65 -145 0
65 147 0
-65 -147 0
65 199 0
-65 -199 0
66 88 0
-66 -88 0
66 95 0
-66 -95 0
66 98 0
-66 -98 0
66 104 0
-66 -104 0
66 112 0
-66 -112 0
66 117 0
-66 -117 0
66 122 0
-66 -122 0
66 134 0
-66 -134 0
66 136 0
-66 -136 0
66 141 0
-66 -141 0
66 152 0
-66 -152 0
66 165 0
-66 -165 0
66 191 0
-66 -191 0
67 84 0
-67 -84 0
67 103 0
-67 -103 0
67 146 0
-67 -146 0
67 148 0
-67 -148 0
67 154 0
-67 -154 0
67 168 0
-67 -168 0
67 183 0
-67 -183 0
67 184 0
-67 -184 0
67 192 0
-67 -192 0
68 74 0
-68 -74 0
68 78 0
-68 -78 0
68 85 0
-68 -85 0
68 104 0
-68 -104 0
68 117 0
-68 -117 0
68 122 0
-68 -122 0
68 123 0
-68 -123 0
69 71 0
-69 -71 0
69 75 0
-69 -75 0
69 77 0
-69 -77 0
69 93 0
-69 -93 0
69 102 0
-69 -102 0
69 117 0
-69 -117 0
69 155 0
-69 -155 0
69 157 0
-69 -157 0
70 143 0
-70 -143 0
70 156 0
-70 -156 0
70 176 0
-70 -176 0
70 188 0
-70 -188 0
70 191 0
-70 -191 0
70 196 0
-70 -196 0
71 80 0
-71 -80 0
71 92 0
-71 -92 0
71 103 0
-71 -103 0
71 167 0
-71 -167 0
71 200 0
-71 -200 0
72 75 0
-72 -75 0
72 88 0
-72 -88 0
72 91 0
-72 -91 0
72 105 0
-72 -105 0
72 110 0
-72 -110 0
72 126 0
-72 -126 0
72 139 0
-72 -139 0
72 143 0
-72 -143 0
72 178 0
-72 -178 0
73 97 0
-73 -97 0
73 111 0
-73 -111 0
73 123 0
-73 -123 0
73 125 0
-73 -125 0
73 126 0
-73 -126 0
74 77 0
-74 -77 0
74 128 0
-74 -128 0
74 160 0
-74 -160 0
74 166 0
-74 -166 0
74 167 0
-74 -167 0
74 182 0
-74 -182 0
74 195 0
-74 -195 0
75 81 0
-75 -81 0
75 87 0
-75 -87 0
75 109 0
-75 -109 0
75 120 0
-75 -120 0
75 128 0
-75 -128 0
75 133 0
-75 -133 0
75 170 0
-75 -170 0
75 198 0
-75 -198 0
76 82 0
-76 -82 0
76 97 0
-76 -97 0
76 100 0
-76 -100 0
76 117 0
-76 -117 0
76 122 0
-76 -122 0
76 132 0
-76 -132 0
76 143 0
-76 -143 0
76 155 0
-76 -155 0
76 161 0
-76 -161 0
76 165 0
-76 -165 0
76 184 0
-76 -184 0
76 185 0
-76 -185 0
76 195 0
-76 -195 0
76 196 0
-76 -196 0
77 101 0
-77 -101 0
77 102 0
-77 -102 0
77 107 0
-77 -107 0
77 113 0
-77 -113 0
77 123 0
-77 -123 0
77 163 0
-77 -163 0
77 167 0
-77 -167 0
77 172 0
-77 -172 0
77 186 0
-77 -186 0
77 195 0
-77 -195 0
78 81 0
-78 -81 0
78 83 0
-78 -83 0
78 90 0
-78 -90 0
78 107 0
-78 -107 0
78 108 0
-78 -108 0
78 119 0
-78 -119 0
78 132 0
-78 -132 0
78 151 0
-78 -151 0
78 159 0
-78 -159 0
78 176 0
-78 -176 0
79 101 0
-79 -101 0
79 110 0
-79 -110 0
79 121 0
-79 -121 0
79 128 0
-79 -128 0
79 133 0
-79 -133 0
79 142 0
-79 -142 0
79 146 0
-79 -146 0
79 162 0
-79 -162 0
79 171 0
-79 -171 0
79 184 0
-79 -184 0
79 185 0
-79 -185 0
79 198 0
-79 -198 0
79 199 0
-79 -199 0
80 146 0
-80 -146 0
80 154 0
-80 -154 0
80 171 0
-80 -171 0
80 175 0
-80 -175 0
80 194 0
-80 -194 0
81 119 0
-81 -119 0
81 134 0
-81 -134 0
81 138 0
-81 -138 0
81 200 0
-81 -200 0
82 109 0
-82 -109 0
82 116 0
-82 -116 0
82 118 0
-82 -118 0
82 143 0
-82 -143 0
82 180 0
-82 -180 0
83 103 0
-83 -103 0
83 107 0
-83 -107 0
83 163 0
-83 -163 0
83 164 0
-83 -164 0
83 178 0
-83 -178 0
83 180 0
-83 -180 0
83 185 0
-83 -185 0
83 188 0
-83 -188 0
84 96 0
-84 -96 0
84 107 0
-84 -107 0
84 118 0
-84 -118 0
84 121 0
-84 -121 0
84 138 0
-84 -138 0
84 164 0
-84 -164 0
84 167 0
-84 -167 0
84 171 0
-84 -171 0
84 175 0
-84 -175 0
84 176 0
-84 -176 0
84 188 0
-84 -188 0
85 92 0
-85 -92 0
85 99 0
-85 -99 0
85 100 0
-85 -100 0
85 119 0
-85 -119 0
85 149 0
-85 -149 0
85 177 0
-85 -177 0
85 192 0
-85 -192 0
85 195 0
-85 -195 0
86 103 0
-86 -103 0
86 119 0
-86 -119 0
86 158 0
-86 -158 0
86 184 0
-86 -184 0
87 116 0
-87 -116 0
87 136 0
-87 -136 0
87 165 0
-87 -165 0
87 190 0
-87 -190 0
88 90 0
-88 -90 0
88 102 0
-88 -102 0
88 116 0
-88 -116 0
88 146 0
-88 -146 0
88 169 0
-88 -169 0
88 172 0
-88 -172 0
88 193 0
-88 -193 0
89 104 0
-89 -104 0
89 113 0
-89 -113 0
89 120 0
-89 -120 0
89 124 0
-89 -124 0
89 144 0
-89 -144 0
89 169 0
-89 -169 0
89 175 0
-89 -175 0
89 196 0
-89 -196 0
90 98 0
-90 -98 0
90 108 0
-90 -108 0
90 111 0
-90 -111 0
90 114 0
-90 -114 0
90 141 0
-90 -141 0
90 146 0
-90 -146 0
90 166 0
-90 -166 0
90 169 0
-90 -169 0
90 176 0
-90 -176 0
90 178 0
-90 -178 0
90 181 0
-90 -181 0
90 190 0
-90 -190 0
91 103 0
-91 -103 0
91 110 0
-91 -110 0
91 131 0
-91 -131 0
91 159 0
-91 -159 0
91 175 0
-91 -175 0
92 95 0
-92 -95 0
92 120 0
-92 -120 0
92 150 0
-92 -150 0
92 151 0
-92 -151 0
92 177 0
-92 -177 0
93 94 0
-93 -94 0
93 95 0
-93 -95 0
93 100 0
-93 -100 0
93 129 0
-93 -129 0
93 145 0
-93 -145 0
93 150 0
-93 -150 0
93 153 0
-93 -153 0
93 181 0
-93 -181 0
93 183 0
-93 -183 0
93 196 0
-93 -196 0
94 180 0
-94 -180 0
94 183 0
-94 -183 0
94 185 0
-94 -185 0
94 187 0
-94 -187 0
95 126 0
-95 -126 0
95 127 0
-95 -127 0
95 129 0
-95 -129 0
95 130 0
-95 -130 0
95 135 0
-95 -135 0
95 150 0
-95 -150 0
95 160 0
-95 -160 0
95 181 0
-95 -181 0
95 191 0
-95 -191 0
96 100 0
-96 -100 0
96 114 0
-96 -114 0
96 127 0
-96 -127 0
96 157 0
-96 -157 0
96 181 0
-96 -181 0
96 199 0
-96 -199 0
97 98 0
-97 -98 0
97 100 0
-97 -100 0
97 119 0
-97 -119 0
97 123 0
-97 -123 0
97 124 0
-97 -124 0
97 127 0
-97 -127 0
97 129 0
-97 -129 0
97 135 0
-97 -135 0
97 146 0
-97 -146 0
97 177 0
-97 -177 0
97 194 0
-97 -194 0
98 103 0
-98 -103 0
98 104 0
-98 -104 0
98 110 0
-98 -110 0
98 120 0
-98 -120 0
98 133 0
-98 -133 0
98 152 0
-98 -152 0
98 161 0
-98 -161 0
98 172 0
-98 -172 0
99 107 0
-99 -107 0
99 109 0
-99 -109 0
99 116 0
-99 -116 0
99 118 0
-99 -118 0
99 119 0
-99 -119 0
99 125 0
-99 -125 0
99 144 0
-99 -144 0
99 150 0
-99 -150 0
99 156 0
-99 -156 0
99 174 0
-99 -174 0
99 190 0
-99 -190 0
99 193 0
-99 -193 0
100 118 0
-100 -118 0
100 119 0
-100 -119 0
100 122 0
-100 -122 0
100 136 0
-100 -136 0
100 160 0
-100 -160 0
100 179 0
-100 -179 0
100 185 0
-100 -185 0
101 113 0
-101 -113 0
101 136 0
-101 -136 0
101 155 0
-101 -155 0
101 159 0
-101 -159 0
101 174 0
-101 -174 0
101 186 0
-101 -186 0
102 103 0
-102 -103 0
102 128 0
-102 -128 0
102 136 0
-102 -136 0
102 146 0
-102 -146 0
102 162 0
-102 -162 0
102 195 0
-102 -195 0
103 145 0
-103 -145 0
103 154 0
-103 -154 0
103 157 0
-103 -157 0
103 163 0
-103 -163 0
104 132 0
-104 -132 0
104 159 0
-104 -159 0
104 161 0
-104 -161 0
104 168 0
-104 -168 0
105 115 0
-105 -115 0
105 118 0
-105 -118 0
105 154 0
-105 -154 0
105 175 0
-105 -175 0
105 177 0
-105 -177 0
106 120 0
-106 -120 0
106 132 0
-106 -132 0
107 136 0
-107 -136 0
107 158 0
-107 -158 0
107 195 0
-107 -195 0
108 111 0
-108 -111 0
108 113 0
-108 -113 0
108 172 0
-108 -172 0
109 127 0
-109 -127 0
109 143 0
-109 -143 0
109 146 0
-109 -146 0
109 168 0
-109 -168 0
109 173 0
-109 -173 0
109 178 0
-109 -178 0
109 182 0
-109 -182 0
109 191 0
-109 -191 0
110 120 0
-110 -120 0
110 130 0
-110 -130 0
110 147 0
-110 -147 0
110 168 0
-110 -168 0
110 182 0
-110 -182 0
110 187 0
-110 -187 0
110 196 0
-110 -196 0
111 121 0
-111 -121 0
111 161 0
-111 -161 0
111 169 0
-111 -169 0
111 173 0
-111 -173 0
112 113 0
-112 -113 0
112 139 0
-112 -139 0
112 165 0
-112 -165 0
112 176 0
-112 -176 0
112 198 0
-112 -198 0
113 125 0
-113 -125 0
113 147 0
-113 -147 0
113 152 0
-113 -152 0
113 154 0
-113 -154 0
113 180 0
-113 -180 0
113 185 0
-113 -185 0
113 191 0
-113 -191 0
113 192 0
-113 -192 0
113 193 0
-113 -193 0
114 143 0
-114 -143 0
114 166 0
-114 -166 0
114 174 0
-114 -174 0
114 175 0
-114 -175 0
114 195 0
-114 -195 0
115 141 0
-115 -141 0
115 168 0
-115 -168 0
115 182 0
-115 -182 0
115 189 0
-115 -189 0
115 193 0
-115 -193 0
116 118 0
-116 -118 0
116 148 0
-116 -148 0
116 161 0
-116 -161 0
116 163 0
-116 -163 0
116 176 0
-116 -176 0
117 151 0
-117 -151 0
117 156 0
-117 -156 0
117 172 0
-117 -172 0
117 186 0
-117 -186 0
118 120 0
-118 -120 0
118 122 0
-118 -122 0
118 146 0
-118 -146 0
118 148 0
-118 -148 0
118 150 0
-118 -150 0
118 171 0
-118 -171 0
118 188 0
-118 -188 0
118 190 0
-118 -190 0
119 137 0
-119 -137 0
119 155 0
-119 -155 0
119 172 0
-119 -172 0
119 185 0
-119 -185 0
120 121 0
-120 -121 0
120 125 0
-120 -125 0
120 139 0
-120 -139 0
120 147 0
-120 -147 0
120 151 0
-120 -151 0
120 189 0
-120 -189 0
120 193 0
-120 -193 0
120 200 0
-120 -200 0
121 176 0
-121 -176 0
122 131 0
-122 -131 0
122 135 0
-122 -135 0
122 147 0
-122 -147 0
122 154 0
-122 -154 0
122 156 0
-122 -156 0
122 168 0
-122 -168 0
122 180 0
-122 -180 0
122 184 0
-122 -184 0
122 196 0
-122 -196 0
122 197 0
-122 -197 0
123 153 0
-123 -153 0
123 183 0
-123 -183 0
123 192 0
-123 -192 0
123 194 0
-123 -194 0
123 198 0
-123 -198 0
124 132 0
-124 -132 0
124 138 0
-124 -138 0
124 183 0
-124 -183 0
124 200 0
-124 -200 0
125 126 0
-125 -126 0
125 148 0
-125 -148 0
125 151 0
-125 -151 0
125 154 0
-125 -154 0
125 183 0
-125 -183 0
125 196 0
-125 -196 0
126 143 0
-126 -143 0
126 151 0
-126 -151 0
126 166 0
-126 -166 0
126 185 0
-126 -185 0
127 149 0
-127 -149 0
127 150 0
-127 -150 0
127 176 0
-127 -176 0
127 177 0
-127 -177 0
128 146 0
-128 -146 0
128 149 0
-128 -149 0
128 156 0
-128 -156 0
128 198 0
-128 -198 0
129 132 0
-129 -132 0
129 138 0
-129 -138 0
129 144 0
-129 -144 0
129 146 0
-129 -146 0
129 162 0
-129 -162 0
129 174 0
-129 -174 0
129 178 0
-129 -178 0
129 180 0
-129 -180 0
129 181 0
-129 -181 0
129 186 0
-129 -186 0
130 136 0
-130 -136 0
130 141 0
-130 -141 0
130 144 0
-130 -144 0
130 148 0
-130 -148 0
130 159 0
-130 -159 0
130 184 0
-130 -184 0
130 198 0
-130 -198 0
131 139 0
-131 -139 0
131 152 0
-131 -152 0
131 154 0
-131 -154 0
131 161 0
-131 -161 0
131 164 0
-131 -164 0
131 165 0
-131 -165 0
131 181 0
-131 -181 0
132 151 0
-132 -151 0
132 199 0
-132 -199 0
133 159 0
-133 -159 0
133 187 0
-133 -187 0
133 194 0
-133 -194 0
133 196 0
-133 -196 0
134 139 0
-134 -139 0
134 179 0
-134 -179 0
135 151 0
-135 -151 0
135 155 0
-135 -155 0
135 157 0
-135 -157 0
135 167 0
-135 -167 0
135 182 0
-135 -182 0
135 186 0
-135 -186 0
135 190 0
-135 -190 0
136 168 0
-136 -168 0
136 173 0
-136 -173 0
136 178 0
-136 -178 0
136 190 0
-136 -190 0
136 191 0
-136 -191 0
137 143 0
-137 -143 0
137 152 0
-137 -152 0
138 139 0
-138 -139 0
138 142 0
-138 -142 0
138 172 0
-138 -172 0
138 187 0
-138 -187 0
139 145 0
-139 -145 0
139 159 0
-139 -159 0
139 165 0
-139 -165 0
139 184 0
-139 -184 0
140 144 0
-140 -144 0
140 145 0
-140 -145 0
140 152 0
-140 -152 0
140 153 0
-140 -153 0
140 157 0
-140 -157 0
140 158 0
-140 -158 0
140 159 0
-140 -159 0
140 170 0
-140 -170 0
142 151 0
-142 -151 0
142 157 0
-142 -157 0
142 162 0
-142 -162 0
143 155 0
-143 -155 0
143 160 0
-143 -160 0
143 162 0
-143 -162 0
143 184 0
-143 -184 0
143 191 0
-143 -191 0
143 194 0
-143 -194 0
143 197 0
-143 -197 0
144 158 0
-144 -158 0
144 160 0
-144 -160 0
144 172 0
-144 -172 0
144 180 0
-144 -180 0
144 181 0
-144 -181 0
144 191 0
-144 -191 0
144 198 0
-144 -198 0
145 148 0
-145 -148 0
145 157 0
-145 -157 0
145 158 0
-145 -158 0
145 179 0
-145 -179 0
146 158 0
-146 -158 0
146 177 0
-146 -177 0
146 184 0
-146 -184 0
146 196 0
-146 -196 0
147 167 0
-147 -167 0
147 176 0
-147 -176 0
148 160 0
-148 -160 0
148 161 0
-148 -161 0
148 188 0
-148 -188 0
149 157 0
-149 -157 0
149 178 0
-149 -178 0
150 182 0
-150 -182 0
150 188 0
-150 -188 0
151 167 0
-151 -167 0
151 173 0
-151 -173 0
151 194 0
-151 -194 0
153 154 0
-153 -154 0
153 161 0
-153 -161 0
153 180 0
-153 -180 0
153 194 0
-153 -194 0
154 157 0
-154 -157 0
155 158 0
-155 -158 0
155 166 0
-155 -166 0
155 178 0
-155 -178 0
155 187 0
-155 -187 0
156 159 0
-156 -159 0
157 161 0
-157 -161 0
158 192 0
-158 -192 0
158 199 0
-158 -199 0
159 167 0
-159 -167 0
159 195 0
-159 -195 0
160 164 0
-160 -164 0
160 167 0
-160 -167 0
160 173 0
-160 -173 0
160 192 0
-160 -192 0
161 173 0
-161 -173 0
161 186 0
-161 -186 0
162 165 0
-162 -165 0
162 180 0
-162 -180 0
162 184 0
-162 -184 0
162 186 0
-162 -186 0
162 188 0
-162 -188 0
162 195 0
-162 -195 0
163 166 0
-163 -166 0
163 168 0
-163 -168 0
164 180 0
-164 -180 0
164 181 0
-164 -181 0
165 178 0
-165 -178 0
166 174 0
-166 -174 0
166 186 0
-166 -186 0
168 185 0
-168 -185 0
169 171 0
-169 -171 0
169 173 0
-169 -173 0
169 179 0
-169 -179 0
170 173 0
-170 -173 0
170 186 0
-170 -186 0
170 192 0
-170 -192 0
171 174 0
-171 -174 0
172 185 0
-172 -185 0
172 195 0
-172 -195 0
173 176 0
-173 -176 0
174 186 0
-174 -186 0
175 180 0
-175 -180 0
175 183 0
-175 -183 0
176 180 0
-176 -180 0
176 181 0
-176 -181 0
177 180 0
-177 -180 0
177 195 0
-177 -195 0
177 198 0
-177 -198 0
179 185 0
-179 -185 0
180 187 0
-180 -187 0
180 190 0
-180 -190 0
180 192 0
-180 -192 0
180 194 0
-180 -194 0
181 192 0
-181 -192 0
182 188 0
-182 -188 0
182 190 0
-182 -190 0
183 194 0
-183 -194 0
184 191 0
-184 -191 0
187 188 0
-187 -188 0
187 190 0
-187 -190 0
187 191 0
-187 -191 0
187 193 0
-187 -193 0
187 199 0
-187 -199 0
190 192 0
-190 -192 0
193 200 0
-193 -200 0
194 196 0
-194 -196 0
194 198 0
-194 -198 0
197 199 0
-197 -199 0
